1 1
0 126 100 50 169 57 9 161 118 72 32 97 187 95 0
0 2 157 101 64 28 156 93 186 86 112 61 6 0
0 158 184 90 143 41 190 43 197 194 193 0
0 117 182 49 74 144 145 24 107 63 181 106 44 55 3 151 0
0 34 46 175 71 129 10 80 131 31 189 109 39 0
0 17 76 40 130 12 168 81 60 87 4 127 0
0 47 155 36 122 166 138 88 37 20 124 154 15 103 5 59 48 30 54 0
0 45 58 27 179 99 167 70 128 123 13 83 153 79 29 98 125 0
0 96 105 160 115 185 89 137 113 68 42 199 136 191 1 196 66 0
0 0
0 56 25 110 75 162 163 148 92 135 146 18 73 147 0
0 33 195 198 53 192 23 62 116 183 104 67 159 16 188 0
0 0
0 22 141 91 142 114 94 140 121 82 174 173 21 171 172 120 139 152 0
0 35 69 108 84 134 85 164 170 11 52 165 77 119 38 150 26 0
0 111 65 176 8 102 178 78 19 177 133 14 180 132 7 51 149 0
